<number of tasks>
50

<cycle time>
1000

<order strength>
0.201


<task times>
1 182
2 221
3 96
4 189
5 189
6 236
7 63
8 180
9 127
10 28
11 102
12 46
13 253
14 102
15 184
16 27
17 41
18 96
19 97
20 81
21 165
22 102
23 202
24 120
25 165
26 285
27 84
28 102
29 238
30 78
31 23
32 153
33 90
34 112
35 306
36 102
37 109
38 53
39 128
40 113
41 82
42 191
43 221
44 51
45 90
46 237
47 95
48 74
49 167
50 163

<precedence relations>
1,23
2,9
3,10
4,13
5,11
6,8
7,12
8,23
9,16
10,18
11,14
11,17
11,21
12,15
13,19
13,20
13,22
14,23
15,23
16,24
17,25
21,26
22,27
22,28
23,29
23,30
23,31
23,32
23,36
24,34
25,33
27,36
28,35
28,37
29,41
29,42
33,39
36,40
37,38
38,43
38,47
41,44
41,45
41,46
43,48
44,50
46,49

<end>
